240 144
387 145
335 153
43 403
101 406
293 191
275 344
13 464
40 190
233 223
320 12
22 224
233 266
0 239
186 22
295 319
44 113
237 66
317 491
548 377
257 407
153 316
394 536
50 471
154 477
261 4
425 226
245 294
462 147
295 186
178 136
62 160
50 123
407 503
184 212
468 514
265 181
337 505
44 193
323 9
187 449
403 219
345 345
536 385
435 420
400 118
102 525
301 174
233 474
545 33
